Maximize
  obj: -8 x0 +7 x1 +2 x2 +9 x3 -5 x4 -10 x5 -5 x6 -3 x7 +2 x8 +0 x9 -7 x10 +5 x11 -8 x12 -9 x13 -9 x14 +10 x15 +10 x16 +3 x17 +9 x18 +5 x19 +8 x20 -10 x21 -3 x22 -4 x23 +3 x24 -5 x25 +9 x26 +3 x27 +5 x28 +3 x29 -2 x30 +5 x31 -3 x32 -10 x33 +4 x34 +2 x35 -10 x36 +7 x37 +9 x38 +0 x39 -144 x40 -157 x41 -83 x42 -178 x43 +113 x44 +111 x45 -135 x46 +41 x47 +189 x48 +72 x49 +37 x50 +82 x51 +48 x52 -164 x53 -192 x54 +58 x55 +0 x56 +150 x57 -155 x58 +8 x59 -12 x60 -148 x61 -54 x62 +20 x63 -175 x64 -13 x65 -2 x66 +24 x67 +54 x68 +138 x69 -34 x70 +110 x71 -147 x72 +84 x73 -195 x74 +167 x75 +67 x76 -130 x77 +7 x78 +55 x79 
Subject to
  c1: +4 x0 +6 x1 +0 x2 +1 x3 +0 x4 +6 x5 +8 x6 +12 x7 +14 x8 -1 x9 +7 x10 +13 x11 +17 x12 +14 x13 +0 x14 -1 x15 +19 x16 +5 x17 +0 x18 +7 x19 +1 x20 +3 x21 +0 x22 +15 x23 +14 x24 +0 x25 +0 x26 +0 x27 +0 x28 +0 x29 +0 x30 +19 x31 +2 x32 +0 x33 +0 x34 +0 x35 +0 x36 +0 x37 +0 x38 +0 x39 +4 x40 <= 67
  c2: +0 x0 +12 x1 +0 x2 +7 x3 -1 x4 +8 x5 +0 x6 +0 x7 +0 x8 -1 x9 +0 x10 +15 x11 +12 x12 +10 x13 +8 x14 +2 x15 +15 x16 +20 x17 +1 x18 +0 x19 +12 x20 +3 x21 +17 x22 +17 x23 +0 x24 +0 x25 +16 x26 +0 x27 +18 x28 +6 x29 +0 x30 +0 x31 +0 x32 +0 x33 +0 x34 +0 x35 +10 x36 +0 x37 +20 x38 +0 x39 -1 x41 <= 82
  c3: +0 x0 +5 x1 +0 x2 +0 x3 -1 x4 -1 x5 +0 x6 +0 x7 +8 x8 +8 x9 +0 x10 +0 x11 +0 x12 +10 x13 +0 x14 +0 x15 +0 x16 +0 x17 +0 x18 +14 x19 +0 x20 +0 x21 +16 x22 +0 x23 +0 x24 +0 x25 +7 x26 +5 x27 +1 x28 +0 x29 +7 x30 +0 x31 +11 x32 +0 x33 +0 x34 +0 x35 +14 x36 +0 x37 +0 x38 +0 x39 +16 x42 <= 99
  c4: +3 x0 +18 x1 +0 x2 +0 x3 +15 x4 +0 x5 +6 x6 -1 x7 +0 x8 +20 x9 +11 x10 +0 x11 +4 x12 +0 x13 +0 x14 +0 x15 +6 x16 +10 x17 +5 x18 +0 x19 +0 x20 +17 x21 +0 x22 +12 x23 +0 x24 +0 x25 +2 x26 +18 x27 +12 x28 +5 x29 +0 x30 +18 x31 +0 x32 +20 x33 +17 x34 +0 x35 +0 x36 +0 x37 +13 x38 +0 x39 +10 x43 <= 54
  c5: +0 x0 +0 x1 +0 x2 +20 x3 +0 x4 +0 x5 +0 x6 +4 x7 +14 x8 +0 x9 +5 x10 +0 x11 +2 x12 +19 x13 +0 x14 +0 x15 +0 x16 +0 x17 +0 x18 +16 x19 +0 x20 +0 x21 +20 x22 +0 x23 +16 x24 +14 x25 +19 x26 +0 x27 +0 x28 +0 x29 +0 x30 +0 x31 +9 x32 +0 x33 +1 x34 +5 x35 +0 x36 +0 x37 +0 x38 +0 x39 +7 x44 <= 62
  c6: +0 x0 +0 x1 +0 x2 +0 x3 +0 x4 +7 x5 +17 x6 +0 x7 +8 x8 +0 x9 +0 x10 +0 x11 +16 x12 +5 x13 +2 x14 +16 x15 +0 x16 +0 x17 +0 x18 +0 x19 +0 x20 +8 x21 +12 x22 +19 x23 +14 x24 +20 x25 +0 x26 +4 x27 +0 x28 +0 x29 +20 x30 +18 x31 +17 x32 +0 x33 +0 x34 +0 x35 +19 x36 +0 x37 +0 x38 +19 x39 +3 x45 <= 95
  c7: +18 x0 +17 x1 +0 x2 +0 x3 +0 x4 +2 x5 +20 x6 +18 x7 +0 x8 +0 x9 +0 x10 +0 x11 +12 x12 +7 x13 +0 x14 +0 x15 +4 x16 +0 x17 +0 x18 +15 x19 +9 x20 +0 x21 +0 x22 +0 x23 +0 x24 +0 x25 +0 x26 +10 x27 +6 x28 +0 x29 +0 x30 +0 x31 +20 x32 +5 x33 +0 x34 +9 x35 +0 x36 +12 x37 +0 x38 +10 x39 -1 x46 <= 57
  c8: +8 x0 +0 x1 +0 x2 +0 x3 +8 x4 +13 x5 +0 x6 +10 x7 +6 x8 +0 x9 +13 x10 +5 x11 +0 x12 +0 x13 +1 x14 +0 x15 +6 x16 +11 x17 +0 x18 +2 x19 +0 x20 +0 x21 +6 x22 +0 x23 +0 x24 +0 x25 +0 x26 +7 x27 +3 x28 +0 x29 +9 x30 +0 x31 +0 x32 +2 x33 +17 x34 +7 x35 +0 x36 +0 x37 +0 x38 +9 x39 +12 x47 <= 63
  c9: +0 x0 +14 x1 +13 x2 +2 x3 +14 x4 +9 x5 +7 x6 +8 x7 +19 x8 -1 x9 +18 x10 +0 x11 +0 x12 +9 x13 +0 x14 +0 x15 +0 x16 +0 x17 +0 x18 +18 x19 +14 x20 +0 x21 +4 x22 +0 x23 +11 x24 +0 x25 +0 x26 +8 x27 +0 x28 +12 x29 +0 x30 +0 x31 +0 x32 +0 x33 +17 x34 +0 x35 +12 x36 +14 x37 +16 x38 +16 x39 +14 x48 <= 65
  c10: -1 x0 +0 x1 -1 x2 +0 x3 +0 x4 +2 x5 +0 x6 +4 x7 +16 x8 -1 x9 +2 x10 +0 x11 +0 x12 +0 x13 +0 x14 +0 x15 +19 x16 +0 x17 -1 x18 +8 x19 +0 x20 +16 x21 +13 x22 +0 x23 +15 x24 +14 x25 +4 x26 +0 x27 +10 x28 +0 x29 +4 x30 +0 x31 +0 x32 +3 x33 +0 x34 +15 x35 -1 x36 +7 x37 +0 x38 +5 x39 +15 x49 <= 62
  c11: +12 x0 +4 x1 +0 x2 +0 x3 +0 x4 +0 x5 +7 x6 +0 x7 +0 x8 +15 x9 +0 x10 +0 x11 +0 x12 +6 x13 +0 x14 +3 x15 +0 x16 +4 x17 -1 x18 +16 x19 +17 x20 +3 x21 +0 x22 +0 x23 +0 x24 +0 x25 +0 x26 -1 x27 +0 x28 +0 x29 +0 x30 +0 x31 +0 x32 +0 x33 +16 x34 +11 x35 +16 x36 +7 x37 +8 x38 +10 x39 +16 x50 <= 72
  c12: +0 x0 +0 x1 +13 x2 +0 x3 +10 x4 +10 x5 +7 x6 +0 x7 +12 x8 +12 x9 +0 x10 +5 x11 +0 x12 +18 x13 +5 x14 +0 x15 +11 x16 +15 x17 +0 x18 +0 x19 +10 x20 +0 x21 +17 x22 +19 x23 +20 x24 +0 x25 +0 x26 +0 x27 +0 x28 +16 x29 +0 x30 +0 x31 +0 x32 +18 x33 +17 x34 +20 x35 +0 x36 +18 x37 +0 x38 +15 x39 +4 x51 <= 52
  c13: +8 x0 +7 x1 +0 x2 +0 x3 +0 x4 +4 x5 +8 x6 +8 x7 +4 x8 +0 x9 +0 x10 +16 x11 +7 x12 +13 x13 +15 x14 +1 x15 +6 x16 +0 x17 +0 x18 +14 x19 +0 x20 +13 x21 +0 x22 +0 x23 +0 x24 +16 x25 +0 x26 +0 x27 +16 x28 +0 x29 +9 x30 +15 x31 +12 x32 +0 x33 +0 x34 +0 x35 +0 x36 +14 x37 +12 x38 +0 x39 +5 x52 <= 61
  c14: +0 x0 +10 x1 +6 x2 +6 x3 +0 x4 +0 x5 +0 x6 +0 x7 +6 x8 +13 x9 +0 x10 +4 x11 +0 x12 +0 x13 +8 x14 +0 x15 +17 x16 +0 x17 +0 x18 +0 x19 +0 x20 +0 x21 +0 x22 +0 x23 +0 x24 +16 x25 +0 x26 +0 x27 +0 x28 +0 x29 +0 x30 +0 x31 +0 x32 +0 x33 +0 x34 +0 x35 +6 x36 +0 x37 +9 x38 +0 x39 +13 x53 <= 79
  c15: +0 x0 +20 x1 +7 x2 +0 x3 +8 x4 +20 x5 +15 x6 +0 x7 +12 x8 +7 x9 +0 x10 +12 x11 +5 x12 +0 x13 +2 x14 +11 x15 +0 x16 +4 x17 +9 x18 +8 x19 +0 x20 +0 x21 +0 x22 +0 x23 +0 x24 +16 x25 +17 x26 +0 x27 +0 x28 +0 x29 +0 x30 +0 x31 +0 x32 +0 x33 +0 x34 +17 x35 +0 x36 +7 x37 +0 x38 +0 x39 +14 x54 <= 63
  c16: +10 x0 +9 x1 -1 x2 +0 x3 +20 x4 +5 x5 +0 x6 +0 x7 +0 x8 +0 x9 +0 x10 +15 x11 +0 x12 +14 x13 +12 x14 +0 x15 +8 x16 +6 x17 +0 x18 +13 x19 +0 x20 +0 x21 +0 x22 +0 x23 +0 x24 +0 x25 +8 x26 +17 x27 +3 x28 +0 x29 +17 x30 +16 x31 +0 x32 +8 x33 +0 x34 +0 x35 +1 x36 +0 x37 +14 x38 +0 x39 +20 x55 <= 84
  c17: +0 x0 +17 x1 +0 x2 +14 x3 +0 x4 +17 x5 +0 x6 +0 x7 -1 x8 +0 x9 +0 x10 +0 x11 +11 x12 +15 x13 +0 x14 +0 x15 +0 x16 +0 x17 +14 x18 +0 x19 +0 x20 +0 x21 +0 x22 +5 x23 +5 x24 -1 x25 +0 x26 +0 x27 +16 x28 +0 x29 +15 x30 +0 x31 +0 x32 +6 x33 +0 x34 +0 x35 +0 x36 +0 x37 +0 x38 +0 x39 +14 x56 <= 71
  c18: +0 x0 +0 x1 +0 x2 +17 x3 +11 x4 +0 x5 +0 x6 +6 x7 +2 x8 +0 x9 +0 x10 +0 x11 +13 x12 +0 x13 +9 x14 +15 x15 +0 x16 +19 x17 +0 x18 +12 x19 +0 x20 +2 x21 +0 x22 +14 x23 +0 x24 +0 x25 +11 x26 +13 x27 +10 x28 +12 x29 +0 x30 +16 x31 +14 x32 +0 x33 +0 x34 +14 x35 +6 x36 +15 x37 +17 x38 +0 x39 +6 x57 <= 95
  c19: +15 x0 +14 x1 +14 x2 +5 x3 +0 x4 +1 x5 +19 x6 +0 x7 +0 x8 +7 x9 +0 x10 +0 x11 +0 x12 +0 x13 +0 x14 +7 x15 +5 x16 +0 x17 +0 x18 +0 x19 +0 x20 +0 x21 +3 x22 +0 x23 +0 x24 +0 x25 +0 x26 +0 x27 +0 x28 +2 x29 +0 x30 +0 x31 +0 x32 +19 x33 +0 x34 +10 x35 -1 x36 +4 x37 +0 x38 +0 x39 +6 x58 <= 63
  c20: +11 x0 +0 x1 +10 x2 +15 x3 +0 x4 +0 x5 +4 x6 +0 x7 +3 x8 +0 x9 +15 x10 +0 x11 +0 x12 +0 x13 +13 x14 +0 x15 +17 x16 +0 x17 +15 x18 +14 x19 +0 x20 +1 x21 +17 x22 +0 x23 +0 x24 +6 x25 +8 x26 +0 x27 +6 x28 +16 x29 +0 x30 +0 x31 +0 x32 +0 x33 +13 x34 +0 x35 +3 x36 +0 x37 +8 x38 +10 x39 +9 x59 <= 63
  c21: +5 x0 +0 x1 +6 x2 +0 x3 +0 x4 +0 x5 +1 x6 +1 x7 +0 x8 +7 x9 +0 x10 +0 x11 +20 x12 +14 x13 +5 x14 +19 x15 +0 x16 +13 x17 +0 x18 +3 x19 +0 x20 -1 x21 +0 x22 +0 x23 +2 x24 -1 x25 +0 x26 +1 x27 +0 x28 +0 x29 +0 x30 +0 x31 +4 x32 +9 x33 +3 x34 +0 x35 +0 x36 +18 x37 +0 x38 +0 x39 +16 x60 <= 75
  c22: +15 x0 +0 x1 +0 x2 +0 x3 +0 x4 +0 x5 +0 x6 +18 x7 +0 x8 +0 x9 +0 x10 +0 x11 +0 x12 +11 x13 -1 x14 +6 x15 +0 x16 +8 x17 +0 x18 +12 x19 +10 x20 +10 x21 +16 x22 +9 x23 +4 x24 +0 x25 +4 x26 +0 x27 +3 x28 +6 x29 +15 x30 +9 x31 +10 x32 +19 x33 +4 x34 +0 x35 +5 x36 +0 x37 +0 x38 +0 x39 +19 x61 <= 85
  c23: +0 x0 +8 x1 +1 x2 +15 x3 +19 x4 +0 x5 +3 x6 +0 x7 +19 x8 +0 x9 +0 x10 +17 x11 +0 x12 +0 x13 +0 x14 +0 x15 +0 x16 +17 x17 -1 x18 +0 x19 +0 x20 +14 x21 +0 x22 +1 x23 +19 x24 +0 x25 +0 x26 +0 x27 +0 x28 +0 x29 +5 x30 +0 x31 -1 x32 +0 x33 +0 x34 +4 x35 +0 x36 +10 x37 +9 x38 +0 x39 +11 x62 <= 52
  c24: +15 x0 +0 x1 +0 x2 +20 x3 +6 x4 +20 x5 +18 x6 +15 x7 +0 x8 +0 x9 +0 x10 +10 x11 +4 x12 +0 x13 +0 x14 +0 x15 +0 x16 +1 x17 +0 x18 +3 x19 +19 x20 +0 x21 +3 x22 +15 x23 +11 x24 +11 x25 +0 x26 +0 x27 +0 x28 +0 x29 +19 x30 +0 x31 +14 x32 +0 x33 +0 x34 +0 x35 +0 x36 -1 x37 +0 x38 +8 x39 +11 x63 <= 66
  c25: +0 x0 +0 x1 +0 x2 +20 x3 +7 x4 +0 x5 +6 x6 +3 x7 +0 x8 +0 x9 +8 x10 +0 x11 +9 x12 +2 x13 +0 x14 +0 x15 +3 x16 +2 x17 +0 x18 +0 x19 +19 x20 +0 x21 +13 x22 +17 x23 +17 x24 +14 x25 +0 x26 +6 x27 +0 x28 +16 x29 +0 x30 +0 x31 +19 x32 +0 x33 +0 x34 +8 x35 +0 x36 +0 x37 +11 x38 +0 x39 +17 x64 <= 100
  c26: +0 x0 +3 x1 +3 x2 +11 x3 +17 x4 +17 x5 +0 x6 +0 x7 +9 x8 +0 x9 +13 x10 +0 x11 +0 x12 +0 x13 +0 x14 +16 x15 +14 x16 +0 x17 +15 x18 +18 x19 +9 x20 +0 x21 +0 x22 +0 x23 +11 x24 +20 x25 +14 x26 +0 x27 +0 x28 +0 x29 +7 x30 +0 x31 +0 x32 +19 x33 +0 x34 +0 x35 +0 x36 +0 x37 +4 x38 +0 x39 +16 x65 <= 64
  c27: +13 x0 +8 x1 +15 x2 +9 x3 +0 x4 +0 x5 +2 x6 +0 x7 +10 x8 +0 x9 +12 x10 +0 x11 +0 x12 +12 x13 +0 x14 +8 x15 +7 x16 +0 x17 +0 x18 +6 x19 +12 x20 +1 x21 +7 x22 +14 x23 +0 x24 +13 x25 +18 x26 +0 x27 +0 x28 +0 x29 +18 x30 +9 x31 +0 x32 +0 x33 +16 x34 +0 x35 +0 x36 +20 x37 +9 x38 +20 x39 +16 x66 <= 66
  c28: +0 x0 +0 x1 +5 x2 +0 x3 +12 x4 +16 x5 +19 x6 +0 x7 +17 x8 +0 x9 +18 x10 +20 x11 +19 x12 +13 x13 +0 x14 +0 x15 +0 x16 +15 x17 +9 x18 +9 x19 +0 x20 +0 x21 +0 x22 +0 x23 +0 x24 +0 x25 +6 x26 +14 x27 +0 x28 +20 x29 +0 x30 +0 x31 +0 x32 +0 x33 +0 x34 +11 x35 +0 x36 +0 x37 +0 x38 +0 x39 +8 x67 <= 83
  c29: +0 x0 +0 x1 +1 x2 +0 x3 +16 x4 +2 x5 +0 x6 +16 x7 +0 x8 +0 x9 +4 x10 +0 x11 +0 x12 +1 x13 +0 x14 +8 x15 +0 x16 +0 x17 +11 x18 +0 x19 +0 x20 +0 x21 +0 x22 +0 x23 +0 x24 +0 x25 +7 x26 +16 x27 +0 x28 +1 x29 +14 x30 +0 x31 +0 x32 +3 x33 +15 x34 +0 x35 +0 x36 +0 x37 +0 x38 +10 x39 +1 x68 <= 98
  c30: +0 x0 +9 x1 +14 x2 +0 x3 +0 x4 +0 x5 +0 x6 +0 x7 +0 x8 +0 x9 +0 x10 +0 x11 +9 x12 +0 x13 +0 x14 +14 x15 +0 x16 +0 x17 +5 x18 +0 x19 +0 x20 +0 x21 +11 x22 +16 x23 +0 x24 +0 x25 +9 x26 +0 x27 +0 x28 +0 x29 +13 x30 +6 x31 +0 x32 +0 x33 +8 x34 +0 x35 +20 x36 +0 x37 +18 x38 +0 x39 +8 x69 <= 62
  c31: +0 x0 +14 x1 +0 x2 +0 x3 +1 x4 +10 x5 +0 x6 -1 x7 +0 x8 +0 x9 +0 x10 +15 x11 +10 x12 +0 x13 -1 x14 +0 x15 +5 x16 +1 x17 +16 x18 +14 x19 +14 x20 +0 x21 +0 x22 +7 x23 +15 x24 +0 x25 +0 x26 +15 x27 +0 x28 +13 x29 +0 x30 +1 x31 +0 x32 +0 x33 +8 x34 +0 x35 +0 x36 +0 x37 +0 x38 +0 x39 +8 x70 <= 94
  c32: +0 x0 +0 x1 -1 x2 +0 x3 +0 x4 +0 x5 +0 x6 +0 x7 +0 x8 +14 x9 +0 x10 +0 x11 +6 x12 +9 x13 +18 x14 +2 x15 +0 x16 +19 x17 +0 x18 +3 x19 +1 x20 +0 x21 +0 x22 +0 x23 +20 x24 +1 x25 +0 x26 +0 x27 +14 x28 +0 x29 +0 x30 +7 x31 +0 x32 +0 x33 +0 x34 +20 x35 +13 x36 +0 x37 -1 x38 +19 x39 +5 x71 <= 89
  c33: +0 x0 +15 x1 +3 x2 +0 x3 +4 x4 -1 x5 +14 x6 +7 x7 +0 x8 +4 x9 +4 x10 +12 x11 +3 x12 +0 x13 +0 x14 +0 x15 +0 x16 +0 x17 +16 x18 +0 x19 +0 x20 +7 x21 +0 x22 +0 x23 +0 x24 +9 x25 +0 x26 +0 x27 +0 x28 +0 x29 +0 x30 +0 x31 -1 x32 +0 x33 +17 x34 +11 x35 +0 x36 +0 x37 +0 x38 +13 x39 +9 x72 <= 95
  c34: +0 x0 +2 x1 +18 x2 +0 x3 +4 x4 +0 x5 +0 x6 +15 x7 +0 x8 +0 x9 +0 x10 +9 x11 +0 x12 +3 x13 +19 x14 +16 x15 +0 x16 +0 x17 +0 x18 +0 x19 +4 x20 +11 x21 +18 x22 +0 x23 +0 x24 +0 x25 +19 x26 +0 x27 +19 x28 +0 x29 +0 x30 +0 x31 +0 x32 +14 x33 +0 x34 +0 x35 +0 x36 +15 x37 +8 x38 +11 x39 +3 x73 <= 66
  c35: +0 x0 +15 x1 +0 x2 +14 x3 +0 x4 +0 x5 +0 x6 +20 x7 +15 x8 +8 x9 +0 x10 +0 x11 +0 x12 +13 x13 +19 x14 +0 x15 +6 x16 +0 x17 +1 x18 +8 x19 +10 x20 +8 x21 +0 x22 +0 x23 +0 x24 +14 x25 +3 x26 +16 x27 +7 x28 +14 x29 +4 x30 +3 x31 +8 x32 -1 x33 +0 x34 -1 x35 +0 x36 +10 x37 +4 x38 +0 x39 +14 x74 <= 93
  c36: +0 x0 +6 x1 +0 x2 +0 x3 +0 x4 +10 x5 +7 x6 +0 x7 +6 x8 -1 x9 +0 x10 +0 x11 +10 x12 +0 x13 +0 x14 +14 x15 +0 x16 +0 x17 +5 x18 +17 x19 +0 x20 +0 x21 +12 x22 -1 x23 +12 x24 +0 x25 +6 x26 +6 x27 +2 x28 +0 x29 +0 x30 +0 x31 +0 x32 +0 x33 +0 x34 +20 x35 +0 x36 +0 x37 +9 x38 +0 x39 +15 x75 <= 56
  c37: +0 x0 +0 x1 +0 x2 +0 x3 +0 x4 +0 x5 +0 x6 +0 x7 +19 x8 +0 x9 +17 x10 +0 x11 +20 x12 +6 x13 +0 x14 +0 x15 +15 x16 +1 x17 +15 x18 +17 x19 +0 x20 +0 x21 +16 x22 +0 x23 +7 x24 +14 x25 +0 x26 +3 x27 +0 x28 +18 x29 +13 x30 +2 x31 +0 x32 +20 x33 +20 x34 +13 x35 +0 x36 +0 x37 +18 x38 +0 x39 +6 x76 <= 60
  c38: +0 x0 +0 x1 +0 x2 +0 x3 +0 x4 +0 x5 +7 x6 +0 x7 +0 x8 +0 x9 +8 x10 +10 x11 +0 x12 +0 x13 +2 x14 +16 x15 +16 x16 +0 x17 +15 x18 +4 x19 +0 x20 +12 x21 +0 x22 +7 x23 +0 x24 +0 x25 +0 x26 +0 x27 +4 x28 +0 x29 +0 x30 +0 x31 +0 x32 +0 x33 +0 x34 +0 x35 +11 x36 +13 x37 +0 x38 -1 x39 +14 x77 <= 75
  c39: +2 x0 +0 x1 +3 x2 +0 x3 +0 x4 +9 x5 -1 x6 +20 x7 +0 x8 +0 x9 +14 x10 +6 x11 +0 x12 +19 x13 +0 x14 +9 x15 +0 x16 +18 x17 +0 x18 +0 x19 +12 x20 +0 x21 +0 x22 +0 x23 +1 x24 +0 x25 +0 x26 +12 x27 +3 x28 +0 x29 +0 x30 +4 x31 +0 x32 +0 x33 +0 x34 +0 x35 +12 x36 +0 x37 +0 x38 +0 x39 +4 x78 <= 94
  c40: +0 x0 +13 x1 +12 x2 +0 x3 +0 x4 +9 x5 -1 x6 +0 x7 +0 x8 +19 x9 +0 x10 +8 x11 +0 x12 +0 x13 +0 x14 +19 x15 +0 x16 +15 x17 +0 x18 -1 x19 +0 x20 +0 x21 +11 x22 +0 x23 +1 x24 +0 x25 +0 x26 +14 x27 +13 x28 +2 x29 +20 x30 +0 x31 +8 x32 +0 x33 +20 x34 +19 x35 +0 x36 +0 x37 +6 x38 +0 x39 -1 x79 <= 100
  c41: +14 x0 +9 x1 +0 x2 +0 x3 +0 x4 +0 x5 +0 x6 +15 x7 +11 x8 +0 x9 +0 x10 -1 x11 +1 x12 +13 x13 +10 x14 +5 x15 +3 x16 +19 x17 +0 x18 +14 x19 +0 x20 +16 x21 +10 x22 +0 x23 +0 x24 +14 x25 +3 x26 +0 x27 +0 x28 +8 x29 +0 x30 +0 x31 +0 x32 +0 x33 +5 x34 +0 x35 +0 x36 +12 x37 +0 x38 +8 x39 <= 87
  c42: +8 x0 +0 x1 +0 x2 +10 x3 +1 x4 +12 x5 +0 x6 +0 x7 +0 x8 +4 x9 +9 x10 +17 x11 +0 x12 +0 x13 +1 x14 +0 x15 +12 x16 +0 x17 +0 x18 +17 x19 +4 x20 +11 x21 +0 x22 +17 x23 +0 x24 +0 x25 +0 x26 +6 x27 +0 x28 +2 x29 +18 x30 +1 x31 +0 x32 +5 x33 +9 x34 +6 x35 +0 x36 +0 x37 +0 x38 +16 x39 <= 65
  c43: +0 x0 +7 x1 +0 x2 +0 x3 +0 x4 +0 x5 +18 x6 +0 x7 +5 x8 +0 x9 +0 x10 +9 x11 +0 x12 +0 x13 +0 x14 +0 x15 +19 x16 +19 x17 +3 x18 +0 x19 +0 x20 +0 x21 +0 x22 +20 x23 +0 x24 +0 x25 +0 x26 +0 x27 +3 x28 +18 x29 +0 x30 +0 x31 +19 x32 +3 x33 +17 x34 +0 x35 +4 x36 +0 x37 +0 x38 +10 x39 <= 77
  c44: +0 x0 -1 x1 +0 x2 +0 x3 +0 x4 +0 x5 +9 x6 +0 x7 +0 x8 +0 x9 +10 x10 +0 x11 +12 x12 +17 x13 +0 x14 +0 x15 +0 x16 +7 x17 +14 x18 +0 x19 +0 x20 +0 x21 +0 x22 +3 x23 +0 x24 +0 x25 +0 x26 +10 x27 +8 x28 +0 x29 +0 x30 +0 x31 +0 x32 +6 x33 +0 x34 +0 x35 +10 x36 +0 x37 +0 x38 +3 x39 <= 72
  c45: +5 x0 +0 x1 +19 x2 +0 x3 +0 x4 +0 x5 +0 x6 +0 x7 +0 x8 +0 x9 +0 x10 +14 x11 +0 x12 -1 x13 +0 x14 +0 x15 +0 x16 +11 x17 +4 x18 +18 x19 +3 x20 +0 x21 +2 x22 +0 x23 +0 x24 +0 x25 +0 x26 +0 x27 +8 x28 +20 x29 +6 x30 +2 x31 +0 x32 +0 x33 +0 x34 +19 x35 +0 x36 +0 x37 +7 x38 +0 x39 <= 95
  c46: +1 x0 +11 x1 +0 x2 +0 x3 +8 x4 +20 x5 +0 x6 +0 x7 +3 x8 +0 x9 +0 x10 +3 x11 +0 x12 -1 x13 +19 x14 +14 x15 +0 x16 +8 x17 +0 x18 +0 x19 +0 x20 +0 x21 +0 x22 +10 x23 +0 x24 +10 x25 +16 x26 +0 x27 +0 x28 +0 x29 +2 x30 +3 x31 +0 x32 +9 x33 +6 x34 +0 x35 +0 x36 +0 x37 +0 x38 +0 x39 <= 90
  c47: +0 x0 +7 x1 +11 x2 +19 x3 +0 x4 +1 x5 +0 x6 +7 x7 +5 x8 +2 x9 +0 x10 +3 x11 +5 x12 +11 x13 +10 x14 +0 x15 +0 x16 +12 x17 +0 x18 +0 x19 +20 x20 +0 x21 +0 x22 +0 x23 +0 x24 +0 x25 +4 x26 +5 x27 +0 x28 +0 x29 +0 x30 +0 x31 +0 x32 +2 x33 +10 x34 +13 x35 +0 x36 +0 x37 +0 x38 +6 x39 <= 56
  c48: +10 x0 +0 x1 +0 x2 +0 x3 +10 x4 +0 x5 +0 x6 +0 x7 +0 x8 +0 x9 +0 x10 +0 x11 +0 x12 +0 x13 +3 x14 +0 x15 +0 x16 +10 x17 +5 x18 +0 x19 +0 x20 +8 x21 +0 x22 +11 x23 +11 x24 +0 x25 +0 x26 +0 x27 +0 x28 +18 x29 +0 x30 +15 x31 +3 x32 +0 x33 +0 x34 +6 x35 +7 x36 +0 x37 +0 x38 +12 x39 <= 90
  c49: +0 x0 +1 x1 +0 x2 +20 x3 +0 x4 +0 x5 +0 x6 +0 x7 +0 x8 +14 x9 +0 x10 +0 x11 +0 x12 +18 x13 +0 x14 +0 x15 +12 x16 +0 x17 +0 x18 +4 x19 +5 x20 +0 x21 +0 x22 +8 x23 +15 x24 -1 x25 +18 x26 +17 x27 +0 x28 +1 x29 +1 x30 +16 x31 +0 x32 +0 x33 +0 x34 +11 x35 +0 x36 +6 x37 +15 x38 -1 x39 <= 59
  c50: +0 x0 +0 x1 +0 x2 +0 x3 +0 x4 +0 x5 +1 x6 +18 x7 +0 x8 +0 x9 +0 x10 +5 x11 +13 x12 +10 x13 +0 x14 +0 x15 +0 x16 +6 x17 +9 x18 +0 x19 +4 x20 +1 x21 +13 x22 +0 x23 +15 x24 +0 x25 +12 x26 +12 x27 +0 x28 +0 x29 +16 x30 +0 x31 +11 x32 -1 x33 +4 x34 +5 x35 +0 x36 +7 x37 +0 x38 +0 x39 <= 94
  c51: +0 x0 +4 x1 +0 x2 +0 x3 +17 x4 +0 x5 +7 x6 +0 x7 +0 x8 +0 x9 +0 x10 +13 x11 +0 x12 +0 x13 +0 x14 +0 x15 +0 x16 +9 x17 +0 x18 +0 x19 +0 x20 +0 x21 +7 x22 +0 x23 +0 x24 +17 x25 +0 x26 +0 x27 +0 x28 +2 x29 +8 x30 +0 x31 +4 x32 +0 x33 +17 x34 +13 x35 +0 x36 +5 x37 +4 x38 +0 x39 <= 52
  c52: +0 x0 +0 x1 +12 x2 +7 x3 +15 x4 +0 x5 +5 x6 +18 x7 +0 x8 +6 x9 +4 x10 +2 x11 +0 x12 +13 x13 +20 x14 +0 x15 +18 x16 +0 x17 +12 x18 +0 x19 +0 x20 +15 x21 +8 x22 +0 x23 +0 x24 +18 x25 +10 x26 +0 x27 +3 x28 +17 x29 +0 x30 +0 x31 +18 x32 +4 x33 +13 x34 +0 x35 +0 x36 +0 x37 +0 x38 +17 x39 <= 84
  c53: +0 x0 +0 x1 +3 x2 +0 x3 +14 x4 +18 x5 +5 x6 +5 x7 +0 x8 +15 x9 +0 x10 +4 x11 +0 x12 +3 x13 +0 x14 +14 x15 +0 x16 +0 x17 +0 x18 +16 x19 +14 x20 +6 x21 +11 x22 +0 x23 +0 x24 +0 x25 +12 x26 +10 x27 +10 x28 +2 x29 +19 x30 +8 x31 +12 x32 +0 x33 +0 x34 +10 x35 +13 x36 +0 x37 +0 x38 +2 x39 <= 79
  c54: +0 x0 +0 x1 +4 x2 +0 x3 +0 x4 +0 x5 +2 x6 +0 x7 +7 x8 +0 x9 +8 x10 +3 x11 +0 x12 +0 x13 +0 x14 +0 x15 +0 x16 +10 x17 +6 x18 +0 x19 +11 x20 +0 x21 +0 x22 +0 x23 +7 x24 +13 x25 +0 x26 +17 x27 +0 x28 +0 x29 +0 x30 +17 x31 +16 x32 +20 x33 +13 x34 +16 x35 +8 x36 +14 x37 +1 x38 +0 x39 <= 79
  c55: +0 x0 +10 x1 +0 x2 +0 x3 +0 x4 +0 x5 +16 x6 +0 x7 +16 x8 +0 x9 +0 x10 +12 x11 +0 x12 +0 x13 +0 x14 +8 x15 +16 x16 +0 x17 +17 x18 +3 x19 +3 x20 +6 x21 +0 x22 +0 x23 +0 x24 +11 x25 +17 x26 +0 x27 +0 x28 +13 x29 -1 x30 +0 x31 +0 x32 +0 x33 +0 x34 +0 x35 +0 x36 +0 x37 +0 x38 +7 x39 <= 74
  c56: +10 x0 +17 x1 +15 x2 +0 x3 +1 x4 +2 x5 +0 x6 +0 x7 +0 x8 +0 x9 +15 x10 +0 x11 +19 x12 +5 x13 +0 x14 +0 x15 +5 x16 +0 x17 +0 x18 +0 x19 +7 x20 +6 x21 +12 x22 +0 x23 +0 x24 +0 x25 +6 x26 +0 x27 +7 x28 +0 x29 +0 x30 +0 x31 +0 x32 +0 x33 +15 x34 +9 x35 +0 x36 +0 x37 +4 x38 +4 x39 <= 78
  c57: +4 x0 +0 x1 +5 x2 +0 x3 +0 x4 +0 x5 +17 x6 +0 x7 +5 x8 +19 x9 +18 x10 +0 x11 +0 x12 +12 x13 +0 x14 +0 x15 +0 x16 +0 x17 +5 x18 +3 x19 +13 x20 +2 x21 +0 x22 +0 x23 +3 x24 -1 x25 +0 x26 +0 x27 +16 x28 +0 x29 +10 x30 +20 x31 +0 x32 +13 x33 +0 x34 +0 x35 +0 x36 +0 x37 +5 x38 +0 x39 <= 67
  c58: +3 x0 +0 x1 +0 x2 +0 x3 +5 x4 +9 x5 +16 x6 -1 x7 +0 x8 +0 x9 +0 x10 +0 x11 +0 x12 +19 x13 +11 x14 +0 x15 +0 x16 -1 x17 +7 x18 +0 x19 +8 x20 +20 x21 -1 x22 +0 x23 +17 x24 +0 x25 +0 x26 +20 x27 +0 x28 +0 x29 +6 x30 +0 x31 +0 x32 +17 x33 +0 x34 +0 x35 +0 x36 +0 x37 +19 x38 +0 x39 <= 64
  c59: +19 x0 +13 x1 +15 x2 +0 x3 +16 x4 +0 x5 +0 x6 +13 x7 +12 x8 +0 x9 +7 x10 +0 x11 +0 x12 +0 x13 +0 x14 +0 x15 +0 x16 +18 x17 +0 x18 +0 x19 +0 x20 +6 x21 +0 x22 +14 x23 +0 x24 +0 x25 +0 x26 +1 x27 +0 x28 +0 x29 +10 x30 +0 x31 +0 x32 +0 x33 +0 x34 +0 x35 +0 x36 +0 x37 +0 x38 +9 x39 <= 85
  c60: +0 x0 +20 x1 +0 x2 -1 x3 +16 x4 +0 x5 +0 x6 +0 x7 +0 x8 +17 x9 +0 x10 +0 x11 +20 x12 +0 x13 +0 x14 +0 x15 +0 x16 +0 x17 +5 x18 +18 x19 +0 x20 +0 x21 +0 x22 +0 x23 +2 x24 +0 x25 +13 x26 +0 x27 +0 x28 +0 x29 +19 x30 +16 x31 +16 x32 +0 x33 -1 x34 +11 x35 +0 x36 +0 x37 +11 x38 +0 x39 <= 64
  c61: +0 x0 +13 x1 +0 x2 +8 x3 +8 x4 +16 x5 +0 x6 +9 x7 +0 x8 +15 x9 -1 x10 +14 x11 +0 x12 +10 x13 +0 x14 +0 x15 +15 x16 +0 x17 -1 x18 +14 x19 +1 x20 +4 x21 +0 x22 +5 x23 +0 x24 +11 x25 +4 x26 +13 x27 +0 x28 +0 x29 +4 x30 +2 x31 +14 x32 +0 x33 +0 x34 +19 x35 +9 x36 +0 x37 +8 x38 +16 x39 <= 77
  c62: +0 x0 -1 x1 +0 x2 +5 x3 +0 x4 +0 x5 +4 x6 +0 x7 +1 x8 +1 x9 +0 x10 +19 x11 +9 x12 +0 x13 +19 x14 +19 x15 +1 x16 +0 x17 +0 x18 +0 x19 +2 x20 +14 x21 +7 x22 +0 x23 +17 x24 +0 x25 +0 x26 +0 x27 +12 x28 +0 x29 +18 x30 +0 x31 +0 x32 +19 x33 +0 x34 +0 x35 +0 x36 +13 x37 +3 x38 +12 x39 <= 52
  c63: +0 x0 +0 x1 +0 x2 +0 x3 +17 x4 +10 x5 +0 x6 +0 x7 +0 x8 +0 x9 +0 x10 +17 x11 +4 x12 +3 x13 +0 x14 +16 x15 +0 x16 +15 x17 +13 x18 +13 x19 +0 x20 +0 x21 -1 x22 +12 x23 +0 x24 +13 x25 +0 x26 +0 x27 +8 x28 +0 x29 +0 x30 +0 x31 +12 x32 +0 x33 +0 x34 +0 x35 +0 x36 +13 x37 +5 x38 +0 x39 <= 77
  c64: +0 x0 +0 x1 +0 x2 +0 x3 +0 x4 +1 x5 +0 x6 +11 x7 +0 x8 +0 x9 +0 x10 +3 x11 +11 x12 +20 x13 +0 x14 +8 x15 +0 x16 +0 x17 +0 x18 +0 x19 +8 x20 +0 x21 +9 x22 +2 x23 +0 x24 +0 x25 +5 x26 +0 x27 +9 x28 +4 x29 +15 x30 +2 x31 +0 x32 +0 x33 +0 x34 +0 x35 +0 x36 +18 x37 +0 x38 +0 x39 <= 71
  c65: +0 x0 +4 x1 +0 x2 +1 x3 +0 x4 +7 x5 +1 x6 +17 x7 +19 x8 +0 x9 +0 x10 +17 x11 +5 x12 +0 x13 +17 x14 +0 x15 +4 x16 +0 x17 +0 x18 +11 x19 +19 x20 +7 x21 +1 x22 +20 x23 +0 x24 +19 x25 +0 x26 +0 x27 +0 x28 +12 x29 +0 x30 +0 x31 +0 x32 +0 x33 +9 x34 +7 x35 +0 x36 +18 x37 +7 x38 +8 x39 <= 69
  c66: +0 x0 +11 x1 +20 x2 +0 x3 +0 x4 +0 x5 +8 x6 +0 x7 +0 x8 +0 x9 +0 x10 -1 x11 +10 x12 +13 x13 +0 x14 +0 x15 +4 x16 +0 x17 -1 x18 +0 x19 +0 x20 +0 x21 +0 x22 +19 x23 +5 x24 +8 x25 +0 x26 +0 x27 +0 x28 +0 x29 +0 x30 +10 x31 +0 x32 +0 x33 +3 x34 +16 x35 +0 x36 -1 x37 +7 x38 +0 x39 <= 95
  c67: +3 x0 +0 x1 +11 x2 +8 x3 +0 x4 +0 x5 +0 x6 +0 x7 +15 x8 +7 x9 +0 x10 +0 x11 +11 x12 -1 x13 +0 x14 -1 x15 +0 x16 +0 x17 +0 x18 +5 x19 +13 x20 +6 x21 +7 x22 +0 x23 +15 x24 +0 x25 +13 x26 +10 x27 +7 x28 +0 x29 +8 x30 +4 x31 +0 x32 +8 x33 +0 x34 +4 x35 +18 x36 +15 x37 +0 x38 +10 x39 <= 51
  c68: +12 x0 +0 x1 +0 x2 +16 x3 +1 x4 +0 x5 +18 x6 +0 x7 +0 x8 +0 x9 +0 x10 +0 x11 +8 x12 +0 x13 +0 x14 +3 x15 +0 x16 +2 x17 +10 x18 +0 x19 +0 x20 +0 x21 +1 x22 +0 x23 +0 x24 +0 x25 +2 x26 +6 x27 +14 x28 +0 x29 +19 x30 +0 x31 +0 x32 +0 x33 +0 x34 +0 x35 +0 x36 +0 x37 +19 x38 +12 x39 <= 53
  c69: +15 x0 +14 x1 +0 x2 +11 x3 +0 x4 +8 x5 +19 x6 +7 x7 +0 x8 +0 x9 -1 x10 +0 x11 +0 x12 -1 x13 +1 x14 +8 x15 +0 x16 +0 x17 +0 x18 +0 x19 +0 x20 +12 x21 +20 x22 +5 x23 +0 x24 +0 x25 +15 x26 +10 x27 +0 x28 +4 x29 +11 x30 +20 x31 +0 x32 +0 x33 +5 x34 +0 x35 +17 x36 +16 x37 +11 x38 +0 x39 <= 69
  c70: +0 x0 +0 x1 +0 x2 +14 x3 +0 x4 +1 x5 +0 x6 +18 x7 +0 x8 +0 x9 +0 x10 +0 x11 +3 x12 +20 x13 +1 x14 +0 x15 +0 x16 +2 x17 +14 x18 +15 x19 +12 x20 +0 x21 +0 x22 +8 x23 +6 x24 +0 x25 +0 x26 +0 x27 +9 x28 +0 x29 +3 x30 +0 x31 +17 x32 +0 x33 +0 x34 +0 x35 +13 x36 +0 x37 +0 x38 +0 x39 <= 96
  c71: +0 x0 +9 x1 +13 x2 +0 x3 +3 x4 +16 x5 +0 x6 +0 x7 +17 x8 +0 x9 -1 x10 +0 x11 +12 x12 +8 x13 +0 x14 +18 x15 +0 x16 +0 x17 +1 x18 +7 x19 +0 x20 +0 x21 +18 x22 +18 x23 +0 x24 +4 x25 +5 x26 +0 x27 +0 x28 +18 x29 +1 x30 +0 x31 +13 x32 +11 x33 +18 x34 +19 x35 +1 x36 +0 x37 +0 x38 +0 x39 <= 53
  c72: +1 x0 +0 x1 +0 x2 +0 x3 +20 x4 +0 x5 +4 x6 +16 x7 -1 x8 +0 x9 +0 x10 +4 x11 +0 x12 +9 x13 +0 x14 +9 x15 +0 x16 +0 x17 +12 x18 +19 x19 +0 x20 +4 x21 +0 x22 +0 x23 +0 x24 +0 x25 +0 x26 +19 x27 +0 x28 -1 x29 +0 x30 +0 x31 +0 x32 +16 x33 +10 x34 +0 x35 +1 x36 +7 x37 +0 x38 +12 x39 <= 80
  c73: +0 x0 +5 x1 +0 x2 +0 x3 -1 x4 +0 x5 +18 x6 +0 x7 +17 x8 +0 x9 +12 x10 +0 x11 +0 x12 +0 x13 +0 x14 +0 x15 +0 x16 +0 x17 +12 x18 +19 x19 +8 x20 +17 x21 +3 x22 +0 x23 +16 x24 +0 x25 +11 x26 +3 x27 +0 x28 +0 x29 +7 x30 +0 x31 +0 x32 +12 x33 +0 x34 +5 x35 +0 x36 +4 x37 +0 x38 +0 x39 <= 60
  c74: +13 x0 +9 x1 +0 x2 +0 x3 +11 x4 -1 x5 +0 x6 -1 x7 +0 x8 +0 x9 +0 x10 +9 x11 +3 x12 +16 x13 +0 x14 +8 x15 +6 x16 +10 x17 +0 x18 +0 x19 +9 x20 +3 x21 +0 x22 +0 x23 +3 x24 +18 x25 +0 x26 +3 x27 +18 x28 +12 x29 +0 x30 +0 x31 +12 x32 +18 x33 +0 x34 +17 x35 +16 x36 +2 x37 +0 x38 +0 x39 <= 54
  c75: +0 x0 +0 x1 +1 x2 +0 x3 +0 x4 +0 x5 +8 x6 +0 x7 +5 x8 +6 x9 +11 x10 +0 x11 +0 x12 +0 x13 +20 x14 +0 x15 +11 x16 +0 x17 +11 x18 +0 x19 +9 x20 +0 x21 +17 x22 +0 x23 +0 x24 +19 x25 +0 x26 +16 x27 +15 x28 +20 x29 +0 x30 +17 x31 +0 x32 +20 x33 +6 x34 +0 x35 +0 x36 -1 x37 +16 x38 +0 x39 <= 51
  c76: +0 x0 +0 x1 +1 x2 +0 x3 +5 x4 +8 x5 +0 x6 +5 x7 +0 x8 +0 x9 +14 x10 +0 x11 +14 x12 +16 x13 +0 x14 +0 x15 +12 x16 +17 x17 +11 x18 +0 x19 +14 x20 +4 x21 +1 x22 +8 x23 +1 x24 +13 x25 +17 x26 +18 x27 +17 x28 +0 x29 +18 x30 +0 x31 +7 x32 +0 x33 +0 x34 +0 x35 +0 x36 +0 x37 +0 x38 +0 x39 <= 79
  c77: +0 x0 +0 x1 +0 x2 +14 x3 +20 x4 +0 x5 +0 x6 +4 x7 +10 x8 +0 x9 +11 x10 +19 x11 +0 x12 +0 x13 +0 x14 +0 x15 +0 x16 +6 x17 +13 x18 +0 x19 +0 x20 +10 x21 +0 x22 +4 x23 +0 x24 +4 x25 +12 x26 +3 x27 +3 x28 +0 x29 +0 x30 +0 x31 +6 x32 +14 x33 +0 x34 +0 x35 +0 x36 +0 x37 +14 x38 +0 x39 <= 94
  c78: +3 x0 +0 x1 +0 x2 +0 x3 +0 x4 +20 x5 +0 x6 +20 x7 +0 x8 +2 x9 +6 x10 +2 x11 +7 x12 +7 x13 +2 x14 +7 x15 +0 x16 +12 x17 +0 x18 +18 x19 -1 x20 +0 x21 +7 x22 +10 x23 +1 x24 +0 x25 +15 x26 +5 x27 +0 x28 +0 x29 +10 x30 +0 x31 +0 x32 +3 x33 +20 x34 +0 x35 +0 x36 +4 x37 +7 x38 +16 x39 <= 82
  c79: +0 x0 +2 x1 +0 x2 +4 x3 +0 x4 +0 x5 +0 x6 +0 x7 +0 x8 +19 x9 +0 x10 +14 x11 +0 x12 +2 x13 +1 x14 +12 x15 +10 x16 +0 x17 +0 x18 +10 x19 +0 x20 +17 x21 +0 x22 +15 x23 +0 x24 +0 x25 +19 x26 +0 x27 +8 x28 +0 x29 +5 x30 +0 x31 +14 x32 +0 x33 +0 x34 +5 x35 +0 x36 +0 x37 +0 x38 -1 x39 <= 68
  c80: + x40 + x41 + x42 + x43 + x44 + x45 + x46 + x47 + x48 + x49 + x50 + x51 + x52 + x53 + x54 + x55 + x56 + x57 + x58 + x59 + x60 + x61 + x62 + x63 + x64 + x65 + x66 + x67 + x68 + x69 + x70 + x71 + x72 + x73 + x74 + x75 + x76 + x77 + x78 + x79 <= 13.333333
Binary
 x40
 x41
 x42
 x43
 x44
 x45
 x46
 x47
 x48
 x49
 x50
 x51
 x52
 x53
 x54
 x55
 x56
 x57
 x58
 x59
 x60
 x61
 x62
 x63
 x64
 x65
 x66
 x67
 x68
 x69
 x70
 x71
 x72
 x73
 x74
 x75
 x76
 x77
 x78
 x79
End
